DIMENSION: 22
EDGE_WEIGHT_TYPE: EXPLICIT
EDGE_WEIGHT_FORMAT: FULL_MATRIX
EDGE_WEIGHT_SECTION:
32767 27 56 50 32767 32767 27 32767 77 32767 81 46 93 32767 96 32767 32767 32767 32767 32767 32767 32767 
27 32767 32767 32767 82 32767 84 32767 21 14 32767 32767 32767 32767 32767 32767 32767 69 9 32767 51 32767 
56 32767 32767 32767 32767 91 32767 32767 32767 76 16 5 18 32767 32767 63 32767 40 87 86 32767 16 
50 32767 32767 32767 32767 32767 43 13 32767 32767 25 32767 32767 32767 32767 32767 68 9 32767 32767 23 32767 
32767 82 32767 32767 32767 32767 32 32767 32767 25 62 32767 32767 7 32767 32767 61 32767 32767 32767 32767 32767 
32767 32767 91 32767 32767 32767 8 32767 32767 32767 83 32767 32767 38 32767 42 32767 32767 69 32767 32767 32767 
27 84 32767 43 32 8 32767 25 32767 32767 32767 99 55 32767 32767 32767 32767 69 32767 32767 32767 32767 
32767 32767 32767 13 32767 32767 25 32767 36 21 32767 13 32767 32767 32767 32767 32767 32767 100 25 32767 32767 
77 21 32767 32767 32767 32767 32767 36 32767 72 39 32767 32767 54 56 49 38 82 91 32767 32767 44 
32767 14 76 32767 25 32767 32767 21 72 32767 32767 32767 32767 32767 32767 67 62 20 32767 4 81 32767 
81 32767 16 25 62 83 32767 32767 39 32767 32767 37 32767 98 32767 31 32767 32767 32767 32767 32767 32767 
46 32767 5 32767 32767 32767 99 13 32767 32767 37 32767 16 32767 47 32767 47 32767 32767 32767 31 32767 
93 32767 18 32767 32767 32767 55 32767 32767 32767 32767 16 32767 12 32767 32767 89 32767 32767 26 32767 32767 
32767 32767 32767 32767 7 38 32767 32767 54 32767 98 32767 12 32767 3 32767 32767 32767 2 83 28 32767 
96 32767 32767 32767 32767 32767 32767 32767 56 32767 32767 47 32767 3 32767 96 11 32767 32767 32767 32767 32767 
32767 32767 63 32767 32767 42 32767 32767 49 67 31 32767 32767 32767 96 32767 79 32767 32767 32767 37 80 
32767 32767 32767 68 61 32767 32767 32767 38 62 32767 47 89 32767 11 79 32767 32767 82 83 87 28 
32767 69 40 9 32767 32767 69 32767 82 20 32767 32767 32767 32767 32767 32767 32767 32767 32767 7 32767 32767 
32767 9 87 32767 32767 69 32767 100 91 32767 32767 32767 32767 2 32767 32767 82 32767 32767 32767 32767 32767 
32767 32767 86 32767 32767 32767 32767 25 32767 4 32767 32767 26 83 32767 32767 83 7 32767 32767 82 32767 
32767 51 32767 23 32767 32767 32767 32767 32767 81 32767 31 32767 28 32767 37 87 32767 32767 82 32767 32767 
32767 32767 16 32767 32767 32767 32767 32767 44 32767 32767 32767 32767 32767 32767 80 28 32767 32767 32767 32767 32767 
EOF